c This file is generated by oracV2cnf
p cnf 11 23
-1 -3 -8 0
1 8 0
3 8 0
-3 -4 -10 0
3 10 0
4 10 0
-2 -10 -9 0
2 9 0
10 9 0
-10 -5 -11 0
10 11 0
5 11 0
-8 -9 -6 0
8 6 0
9 6 0
-9 -11 -7 0
9 7 0
11 7 0
